p cnf 60 30
50 2 6 0
-9 48 47 0
-42 36 22 0
-42 -18 4 0
27 30 28 0
33 53 46 0
-52 12 -39 0
59 11 -50 0
56 44 32 0
9 -35 -55 0
-15 53 -41 0
-36 38 6 0
-51 30 54 0
-5 48 -6 0
-11 -20 33 0
12 47 -15 0
-10 23 35 0
-44 9 -22 0
-35 7 4 0
-55 -22 -45 0
32 46 57 0
60 -2 55 0
-36 -46 -45 0
-38 24 5 0
-35 17 -15 0
-57 -35 -12 0
50 24 -7 0
54 -57 17 0
10 17 40 0
39 41 -54 0
